predicate array_int_maximum(var int: m,array [int] of var int: x);
predicate gecode_blackbox(array [int] of var int: int_input,array [int] of var float: float_input,array [int] of var int: int_output,array [int] of var float: float_output);
array [1..3] of int: X_INTRODUCED_47_ = [-1,-1,1];
array [1..2] of int: X_INTRODUCED_134_ = [1,-1];
array [1..3] of int: X_INTRODUCED_170_ = [1,1,-1];
var int: X_INTRODUCED_1_;
var int: X_INTRODUCED_2_;
var int: X_INTRODUCED_3_;
var int: X_INTRODUCED_4_;
var int: X_INTRODUCED_5_;
var int: X_INTRODUCED_6_;
var int: X_INTRODUCED_7_;
var int: X_INTRODUCED_8_;
var int: X_INTRODUCED_9_;
var int: X_INTRODUCED_10_;
var int: X_INTRODUCED_11_;
var int: X_INTRODUCED_12_;
var 0..76: X_INTRODUCED_14_;
var 0..76: X_INTRODUCED_15_;
var 0..76: X_INTRODUCED_16_;
var 0..76: X_INTRODUCED_17_;
var 0..76: X_INTRODUCED_18_;
var 0..76: X_INTRODUCED_19_;
var 0..76: X_INTRODUCED_20_;
var 0..76: X_INTRODUCED_21_;
var 0..76: X_INTRODUCED_22_;
var 0..76: X_INTRODUCED_23_;
var 0..76: X_INTRODUCED_24_;
var 0..76: X_INTRODUCED_25_;
var 0..76: X_INTRODUCED_27_;
var 0..76: X_INTRODUCED_28_;
var 0..76: X_INTRODUCED_29_;
var 0..76: X_INTRODUCED_30_;
var 0..76: X_INTRODUCED_31_;
var 0..76: X_INTRODUCED_32_;
var 0..76: X_INTRODUCED_33_;
var 0..76: X_INTRODUCED_34_;
var 0..76: X_INTRODUCED_35_;
var 0..76: X_INTRODUCED_36_;
var 0..76: X_INTRODUCED_37_;
var 0..76: X_INTRODUCED_38_;
var 0..12: violation:: is_defined_var:: output_var;
var bool: X_INTRODUCED_48_ ::var_is_introduced :: is_defined_var;
var bool: X_INTRODUCED_50_ ::var_is_introduced :: is_defined_var;
var bool: X_INTRODUCED_51_ ::var_is_introduced :: is_defined_var;
var bool: X_INTRODUCED_52_ ::var_is_introduced :: is_defined_var;
var bool: X_INTRODUCED_54_ ::var_is_introduced :: is_defined_var;
var bool: X_INTRODUCED_55_ ::var_is_introduced :: is_defined_var;
var bool: X_INTRODUCED_56_ ::var_is_introduced :: is_defined_var;
var bool: X_INTRODUCED_57_ ::var_is_introduced :: is_defined_var;
var bool: X_INTRODUCED_58_ ::var_is_introduced :: is_defined_var;
var 0..1: X_INTRODUCED_60_ ::var_is_introduced :: is_defined_var;
var 0..1: X_INTRODUCED_61_ ::var_is_introduced :: is_defined_var;
var 0..1: X_INTRODUCED_62_ ::var_is_introduced :: is_defined_var;
var bool: X_INTRODUCED_70_ ::var_is_introduced :: is_defined_var;
var bool: X_INTRODUCED_72_ ::var_is_introduced :: is_defined_var;
var bool: X_INTRODUCED_73_ ::var_is_introduced :: is_defined_var;
var bool: X_INTRODUCED_74_ ::var_is_introduced :: is_defined_var;
var bool: X_INTRODUCED_76_ ::var_is_introduced :: is_defined_var;
var bool: X_INTRODUCED_77_ ::var_is_introduced :: is_defined_var;
var bool: X_INTRODUCED_78_ ::var_is_introduced :: is_defined_var;
var bool: X_INTRODUCED_79_ ::var_is_introduced :: is_defined_var;
var bool: X_INTRODUCED_80_ ::var_is_introduced :: is_defined_var;
var 0..1: X_INTRODUCED_82_ ::var_is_introduced :: is_defined_var;
var 0..1: X_INTRODUCED_83_ ::var_is_introduced :: is_defined_var;
var 0..1: X_INTRODUCED_84_ ::var_is_introduced :: is_defined_var;
var bool: X_INTRODUCED_92_ ::var_is_introduced :: is_defined_var;
var bool: X_INTRODUCED_94_ ::var_is_introduced :: is_defined_var;
var bool: X_INTRODUCED_95_ ::var_is_introduced :: is_defined_var;
var bool: X_INTRODUCED_96_ ::var_is_introduced :: is_defined_var;
var int: X_INTRODUCED_97_ ::var_is_introduced :: is_defined_var;
var bool: X_INTRODUCED_98_ ::var_is_introduced :: is_defined_var;
var bool: X_INTRODUCED_99_ ::var_is_introduced :: is_defined_var;
var bool: X_INTRODUCED_100_ ::var_is_introduced :: is_defined_var;
var bool: X_INTRODUCED_101_ ::var_is_introduced :: is_defined_var;
var bool: X_INTRODUCED_102_ ::var_is_introduced :: is_defined_var;
var 0..1: X_INTRODUCED_104_ ::var_is_introduced :: is_defined_var;
var 0..1: X_INTRODUCED_105_ ::var_is_introduced :: is_defined_var;
var 0..1: X_INTRODUCED_106_ ::var_is_introduced :: is_defined_var;
var int: X_INTRODUCED_113_ ::var_is_introduced :: is_defined_var;
var bool: X_INTRODUCED_114_ ::var_is_introduced :: is_defined_var;
var int: X_INTRODUCED_115_ ::var_is_introduced :: is_defined_var;
var bool: X_INTRODUCED_116_ ::var_is_introduced :: is_defined_var;
var bool: X_INTRODUCED_117_ ::var_is_introduced :: is_defined_var;
var bool: X_INTRODUCED_118_ ::var_is_introduced :: is_defined_var;
var bool: X_INTRODUCED_120_ ::var_is_introduced :: is_defined_var;
var bool: X_INTRODUCED_121_ ::var_is_introduced :: is_defined_var;
var bool: X_INTRODUCED_122_ ::var_is_introduced :: is_defined_var;
var bool: X_INTRODUCED_123_ ::var_is_introduced :: is_defined_var;
var bool: X_INTRODUCED_124_ ::var_is_introduced :: is_defined_var;
var 0..1: X_INTRODUCED_126_ ::var_is_introduced :: is_defined_var;
var 0..1: X_INTRODUCED_127_ ::var_is_introduced :: is_defined_var;
var 0..1: X_INTRODUCED_128_ ::var_is_introduced :: is_defined_var;
var 0..76: X_INTRODUCED_131_ ::var_is_introduced :: is_defined_var;
var 0..10396: X_INTRODUCED_132_:: is_defined_var;
var -76..76: X_INTRODUCED_135_ ::var_is_introduced :: is_defined_var;
var 0..76: X_INTRODUCED_136_ ::var_is_introduced :: is_defined_var;
var -76..76: X_INTRODUCED_137_ ::var_is_introduced :: is_defined_var;
var 0..76: X_INTRODUCED_138_ ::var_is_introduced :: is_defined_var;
var -76..76: X_INTRODUCED_139_ ::var_is_introduced :: is_defined_var;
var 0..76: X_INTRODUCED_140_ ::var_is_introduced :: is_defined_var;
var -76..76: X_INTRODUCED_141_ ::var_is_introduced :: is_defined_var;
var 0..76: X_INTRODUCED_142_ ::var_is_introduced :: is_defined_var;
var -76..76: X_INTRODUCED_143_ ::var_is_introduced :: is_defined_var;
var 0..76: X_INTRODUCED_144_ ::var_is_introduced :: is_defined_var;
var -76..76: X_INTRODUCED_145_ ::var_is_introduced :: is_defined_var;
var 0..76: X_INTRODUCED_146_ ::var_is_introduced :: is_defined_var;
var -76..76: X_INTRODUCED_147_ ::var_is_introduced :: is_defined_var;
var 0..76: X_INTRODUCED_148_ ::var_is_introduced :: is_defined_var;
var -76..76: X_INTRODUCED_149_ ::var_is_introduced :: is_defined_var;
var 0..76: X_INTRODUCED_150_ ::var_is_introduced :: is_defined_var;
var -76..76: X_INTRODUCED_151_ ::var_is_introduced :: is_defined_var;
var 0..76: X_INTRODUCED_152_ ::var_is_introduced :: is_defined_var;
var -76..76: X_INTRODUCED_153_ ::var_is_introduced :: is_defined_var;
var 0..76: X_INTRODUCED_154_ ::var_is_introduced :: is_defined_var;
var -76..76: X_INTRODUCED_155_ ::var_is_introduced :: is_defined_var;
var 0..76: X_INTRODUCED_156_ ::var_is_introduced :: is_defined_var;
var -76..76: X_INTRODUCED_157_ ::var_is_introduced :: is_defined_var;
var 0..76: X_INTRODUCED_158_ ::var_is_introduced :: is_defined_var;
array [1..12] of var int: X_INTRODUCED_0_:: output_array([1..12]) = [X_INTRODUCED_1_,X_INTRODUCED_2_,X_INTRODUCED_3_,X_INTRODUCED_4_,X_INTRODUCED_5_,X_INTRODUCED_6_,X_INTRODUCED_7_,X_INTRODUCED_8_,X_INTRODUCED_9_,X_INTRODUCED_10_,X_INTRODUCED_11_,X_INTRODUCED_12_];
array [1..12] of var int: X_INTRODUCED_13_:: output_array([1..12]) = [X_INTRODUCED_14_,X_INTRODUCED_15_,X_INTRODUCED_16_,X_INTRODUCED_17_,X_INTRODUCED_18_,X_INTRODUCED_19_,X_INTRODUCED_20_,X_INTRODUCED_21_,X_INTRODUCED_22_,X_INTRODUCED_23_,X_INTRODUCED_24_,X_INTRODUCED_25_];
array [1..12] of var int: X_INTRODUCED_26_:: output_array([1..12]) = [X_INTRODUCED_27_,X_INTRODUCED_28_,X_INTRODUCED_29_,X_INTRODUCED_30_,X_INTRODUCED_31_,X_INTRODUCED_32_,X_INTRODUCED_33_,X_INTRODUCED_34_,X_INTRODUCED_35_,X_INTRODUCED_36_,X_INTRODUCED_37_,X_INTRODUCED_38_];
array [1..3] of var int: X_INTRODUCED_130_ ::var_is_introduced  = [X_INTRODUCED_113_,X_INTRODUCED_115_,X_INTRODUCED_97_];
array [1..12] of var int: X_INTRODUCED_171_ ::var_is_introduced  = [X_INTRODUCED_1_,X_INTRODUCED_2_,X_INTRODUCED_3_,X_INTRODUCED_4_,X_INTRODUCED_5_,X_INTRODUCED_6_,X_INTRODUCED_7_,X_INTRODUCED_8_,X_INTRODUCED_9_,X_INTRODUCED_10_,X_INTRODUCED_11_,X_INTRODUCED_12_];
array [1..12] of var int: X_INTRODUCED_172_ ::var_is_introduced  = [X_INTRODUCED_14_,X_INTRODUCED_15_,X_INTRODUCED_16_,X_INTRODUCED_17_,X_INTRODUCED_18_,X_INTRODUCED_19_,X_INTRODUCED_20_,X_INTRODUCED_21_,X_INTRODUCED_22_,X_INTRODUCED_23_,X_INTRODUCED_24_,X_INTRODUCED_25_];
constraint array_int_maximum(X_INTRODUCED_131_,X_INTRODUCED_130_):: defines_var(X_INTRODUCED_131_);
constraint int_abs(X_INTRODUCED_135_,X_INTRODUCED_136_):: defines_var(X_INTRODUCED_136_);
constraint int_abs(X_INTRODUCED_137_,X_INTRODUCED_138_):: defines_var(X_INTRODUCED_138_);
constraint int_abs(X_INTRODUCED_139_,X_INTRODUCED_140_):: defines_var(X_INTRODUCED_140_);
constraint int_abs(X_INTRODUCED_141_,X_INTRODUCED_142_):: defines_var(X_INTRODUCED_142_);
constraint int_abs(X_INTRODUCED_143_,X_INTRODUCED_144_):: defines_var(X_INTRODUCED_144_);
constraint int_abs(X_INTRODUCED_145_,X_INTRODUCED_146_):: defines_var(X_INTRODUCED_146_);
constraint int_abs(X_INTRODUCED_147_,X_INTRODUCED_148_):: defines_var(X_INTRODUCED_148_);
constraint int_abs(X_INTRODUCED_149_,X_INTRODUCED_150_):: defines_var(X_INTRODUCED_150_);
constraint int_abs(X_INTRODUCED_151_,X_INTRODUCED_152_):: defines_var(X_INTRODUCED_152_);
constraint int_abs(X_INTRODUCED_153_,X_INTRODUCED_154_):: defines_var(X_INTRODUCED_154_);
constraint int_abs(X_INTRODUCED_155_,X_INTRODUCED_156_):: defines_var(X_INTRODUCED_156_);
constraint int_abs(X_INTRODUCED_157_,X_INTRODUCED_158_):: defines_var(X_INTRODUCED_158_);
constraint int_lin_le(X_INTRODUCED_134_,[X_INTRODUCED_14_,X_INTRODUCED_15_],-3);
constraint int_lin_le(X_INTRODUCED_134_,[X_INTRODUCED_15_,X_INTRODUCED_16_],-3);
constraint int_lin_le(X_INTRODUCED_134_,[X_INTRODUCED_16_,X_INTRODUCED_17_],-4);
constraint int_lin_le(X_INTRODUCED_134_,[X_INTRODUCED_18_,X_INTRODUCED_19_],-4);
constraint int_lin_le(X_INTRODUCED_134_,[X_INTRODUCED_19_,X_INTRODUCED_20_],-3);
constraint int_lin_le(X_INTRODUCED_134_,[X_INTRODUCED_20_,X_INTRODUCED_21_],-2);
constraint int_lin_le(X_INTRODUCED_134_,[X_INTRODUCED_22_,X_INTRODUCED_23_],-3);
constraint int_lin_le(X_INTRODUCED_134_,[X_INTRODUCED_23_,X_INTRODUCED_24_],-3);
constraint int_lin_le(X_INTRODUCED_134_,[X_INTRODUCED_24_,X_INTRODUCED_25_],-3);
constraint int_lin_le(X_INTRODUCED_170_,[X_INTRODUCED_27_,X_INTRODUCED_1_,X_INTRODUCED_28_],-3);
constraint int_lin_le(X_INTRODUCED_170_,[X_INTRODUCED_28_,X_INTRODUCED_2_,X_INTRODUCED_29_],-3);
constraint int_lin_le(X_INTRODUCED_170_,[X_INTRODUCED_29_,X_INTRODUCED_3_,X_INTRODUCED_30_],-4);
constraint int_lin_le(X_INTRODUCED_170_,[X_INTRODUCED_31_,X_INTRODUCED_5_,X_INTRODUCED_32_],-4);
constraint int_lin_le(X_INTRODUCED_170_,[X_INTRODUCED_32_,X_INTRODUCED_6_,X_INTRODUCED_33_],-3);
constraint int_lin_le(X_INTRODUCED_170_,[X_INTRODUCED_33_,X_INTRODUCED_7_,X_INTRODUCED_34_],-2);
constraint int_lin_le(X_INTRODUCED_170_,[X_INTRODUCED_35_,X_INTRODUCED_9_,X_INTRODUCED_36_],-3);
constraint int_lin_le(X_INTRODUCED_170_,[X_INTRODUCED_36_,X_INTRODUCED_10_,X_INTRODUCED_37_],-3);
constraint int_lin_le(X_INTRODUCED_170_,[X_INTRODUCED_37_,X_INTRODUCED_11_,X_INTRODUCED_38_],-3);
constraint gecode_blackbox(X_INTRODUCED_172_,[],X_INTRODUCED_171_,[]):: blackbox_exec("/opt/anaconda3/bin/python /Users/kieronqtran/Projects/Deeker1/blackbox/bb_jobshop_py/bb_jobshop_simulator.py");
constraint int_lin_eq([1,1,1,1,1,1,1,1,1,1,1,1,-1],[X_INTRODUCED_60_,X_INTRODUCED_61_,X_INTRODUCED_62_,X_INTRODUCED_82_,X_INTRODUCED_83_,X_INTRODUCED_84_,X_INTRODUCED_104_,X_INTRODUCED_105_,X_INTRODUCED_106_,X_INTRODUCED_126_,X_INTRODUCED_127_,X_INTRODUCED_128_,violation],0):: defines_var(violation);
constraint int_lin_le_reif(X_INTRODUCED_47_,[X_INTRODUCED_27_,X_INTRODUCED_1_,X_INTRODUCED_31_],2,X_INTRODUCED_48_):: defines_var(X_INTRODUCED_48_);
constraint int_lin_le_reif(X_INTRODUCED_47_,[X_INTRODUCED_31_,X_INTRODUCED_5_,X_INTRODUCED_27_],3,X_INTRODUCED_50_):: defines_var(X_INTRODUCED_50_);
constraint array_bool_and([X_INTRODUCED_48_,X_INTRODUCED_50_],X_INTRODUCED_51_):: defines_var(X_INTRODUCED_51_);
constraint int_lin_le_reif(X_INTRODUCED_47_,[X_INTRODUCED_27_,X_INTRODUCED_1_,X_INTRODUCED_37_],2,X_INTRODUCED_52_):: defines_var(X_INTRODUCED_52_);
constraint int_lin_le_reif(X_INTRODUCED_47_,[X_INTRODUCED_37_,X_INTRODUCED_11_,X_INTRODUCED_27_],2,X_INTRODUCED_54_):: defines_var(X_INTRODUCED_54_);
constraint array_bool_and([X_INTRODUCED_52_,X_INTRODUCED_54_],X_INTRODUCED_55_):: defines_var(X_INTRODUCED_55_);
constraint int_lin_le_reif(X_INTRODUCED_47_,[X_INTRODUCED_31_,X_INTRODUCED_5_,X_INTRODUCED_37_],3,X_INTRODUCED_56_):: defines_var(X_INTRODUCED_56_);
constraint int_lin_le_reif(X_INTRODUCED_47_,[X_INTRODUCED_37_,X_INTRODUCED_11_,X_INTRODUCED_31_],2,X_INTRODUCED_57_):: defines_var(X_INTRODUCED_57_);
constraint array_bool_and([X_INTRODUCED_56_,X_INTRODUCED_57_],X_INTRODUCED_58_):: defines_var(X_INTRODUCED_58_);
constraint bool2int(X_INTRODUCED_51_,X_INTRODUCED_60_):: defines_var(X_INTRODUCED_60_);
constraint bool2int(X_INTRODUCED_55_,X_INTRODUCED_61_):: defines_var(X_INTRODUCED_61_);
constraint bool2int(X_INTRODUCED_58_,X_INTRODUCED_62_):: defines_var(X_INTRODUCED_62_);
constraint int_lin_le_reif(X_INTRODUCED_47_,[X_INTRODUCED_28_,X_INTRODUCED_2_,X_INTRODUCED_33_],2,X_INTRODUCED_70_):: defines_var(X_INTRODUCED_70_);
constraint int_lin_le_reif(X_INTRODUCED_47_,[X_INTRODUCED_33_,X_INTRODUCED_7_,X_INTRODUCED_28_],1,X_INTRODUCED_72_):: defines_var(X_INTRODUCED_72_);
constraint array_bool_and([X_INTRODUCED_70_,X_INTRODUCED_72_],X_INTRODUCED_73_):: defines_var(X_INTRODUCED_73_);
constraint int_lin_le_reif(X_INTRODUCED_47_,[X_INTRODUCED_28_,X_INTRODUCED_2_,X_INTRODUCED_36_],2,X_INTRODUCED_74_):: defines_var(X_INTRODUCED_74_);
constraint int_lin_le_reif(X_INTRODUCED_47_,[X_INTRODUCED_36_,X_INTRODUCED_10_,X_INTRODUCED_28_],2,X_INTRODUCED_76_):: defines_var(X_INTRODUCED_76_);
constraint array_bool_and([X_INTRODUCED_74_,X_INTRODUCED_76_],X_INTRODUCED_77_):: defines_var(X_INTRODUCED_77_);
constraint int_lin_le_reif(X_INTRODUCED_47_,[X_INTRODUCED_33_,X_INTRODUCED_7_,X_INTRODUCED_36_],1,X_INTRODUCED_78_):: defines_var(X_INTRODUCED_78_);
constraint int_lin_le_reif(X_INTRODUCED_47_,[X_INTRODUCED_36_,X_INTRODUCED_10_,X_INTRODUCED_33_],2,X_INTRODUCED_79_):: defines_var(X_INTRODUCED_79_);
constraint array_bool_and([X_INTRODUCED_78_,X_INTRODUCED_79_],X_INTRODUCED_80_):: defines_var(X_INTRODUCED_80_);
constraint bool2int(X_INTRODUCED_73_,X_INTRODUCED_82_):: defines_var(X_INTRODUCED_82_);
constraint bool2int(X_INTRODUCED_77_,X_INTRODUCED_83_):: defines_var(X_INTRODUCED_83_);
constraint bool2int(X_INTRODUCED_80_,X_INTRODUCED_84_):: defines_var(X_INTRODUCED_84_);
constraint int_lin_le_reif(X_INTRODUCED_47_,[X_INTRODUCED_29_,X_INTRODUCED_3_,X_INTRODUCED_32_],3,X_INTRODUCED_92_):: defines_var(X_INTRODUCED_92_);
constraint int_lin_le_reif(X_INTRODUCED_47_,[X_INTRODUCED_32_,X_INTRODUCED_6_,X_INTRODUCED_29_],2,X_INTRODUCED_94_):: defines_var(X_INTRODUCED_94_);
constraint array_bool_and([X_INTRODUCED_92_,X_INTRODUCED_94_],X_INTRODUCED_95_):: defines_var(X_INTRODUCED_95_);
constraint int_lin_le_reif(X_INTRODUCED_47_,[X_INTRODUCED_29_,X_INTRODUCED_3_,X_INTRODUCED_38_],3,X_INTRODUCED_96_):: defines_var(X_INTRODUCED_96_);
constraint int_lin_eq([1,1,-1],[X_INTRODUCED_38_,X_INTRODUCED_12_,X_INTRODUCED_97_],-4):: defines_var(X_INTRODUCED_97_);
constraint int_lin_le_reif(X_INTRODUCED_47_,[X_INTRODUCED_38_,X_INTRODUCED_12_,X_INTRODUCED_29_],3,X_INTRODUCED_98_):: defines_var(X_INTRODUCED_98_);
constraint array_bool_and([X_INTRODUCED_96_,X_INTRODUCED_98_],X_INTRODUCED_99_):: defines_var(X_INTRODUCED_99_);
constraint int_lin_le_reif(X_INTRODUCED_47_,[X_INTRODUCED_32_,X_INTRODUCED_6_,X_INTRODUCED_38_],2,X_INTRODUCED_100_):: defines_var(X_INTRODUCED_100_);
constraint int_lin_le_reif(X_INTRODUCED_47_,[X_INTRODUCED_38_,X_INTRODUCED_12_,X_INTRODUCED_32_],3,X_INTRODUCED_101_):: defines_var(X_INTRODUCED_101_);
constraint array_bool_and([X_INTRODUCED_100_,X_INTRODUCED_101_],X_INTRODUCED_102_):: defines_var(X_INTRODUCED_102_);
constraint bool2int(X_INTRODUCED_95_,X_INTRODUCED_104_):: defines_var(X_INTRODUCED_104_);
constraint bool2int(X_INTRODUCED_99_,X_INTRODUCED_105_):: defines_var(X_INTRODUCED_105_);
constraint bool2int(X_INTRODUCED_102_,X_INTRODUCED_106_):: defines_var(X_INTRODUCED_106_);
constraint int_lin_eq([1,1,-1],[X_INTRODUCED_30_,X_INTRODUCED_4_,X_INTRODUCED_113_],-4):: defines_var(X_INTRODUCED_113_);
constraint int_lin_le_reif(X_INTRODUCED_47_,[X_INTRODUCED_30_,X_INTRODUCED_4_,X_INTRODUCED_34_],3,X_INTRODUCED_114_):: defines_var(X_INTRODUCED_114_);
constraint int_lin_eq([1,1,-1],[X_INTRODUCED_34_,X_INTRODUCED_8_,X_INTRODUCED_115_],-2):: defines_var(X_INTRODUCED_115_);
constraint int_lin_le_reif(X_INTRODUCED_47_,[X_INTRODUCED_34_,X_INTRODUCED_8_,X_INTRODUCED_30_],1,X_INTRODUCED_116_):: defines_var(X_INTRODUCED_116_);
constraint array_bool_and([X_INTRODUCED_114_,X_INTRODUCED_116_],X_INTRODUCED_117_):: defines_var(X_INTRODUCED_117_);
constraint int_lin_le_reif(X_INTRODUCED_47_,[X_INTRODUCED_30_,X_INTRODUCED_4_,X_INTRODUCED_35_],3,X_INTRODUCED_118_):: defines_var(X_INTRODUCED_118_);
constraint int_lin_le_reif(X_INTRODUCED_47_,[X_INTRODUCED_35_,X_INTRODUCED_9_,X_INTRODUCED_30_],2,X_INTRODUCED_120_):: defines_var(X_INTRODUCED_120_);
constraint array_bool_and([X_INTRODUCED_118_,X_INTRODUCED_120_],X_INTRODUCED_121_):: defines_var(X_INTRODUCED_121_);
constraint int_lin_le_reif(X_INTRODUCED_47_,[X_INTRODUCED_34_,X_INTRODUCED_8_,X_INTRODUCED_35_],1,X_INTRODUCED_122_):: defines_var(X_INTRODUCED_122_);
constraint int_lin_le_reif(X_INTRODUCED_47_,[X_INTRODUCED_35_,X_INTRODUCED_9_,X_INTRODUCED_34_],2,X_INTRODUCED_123_):: defines_var(X_INTRODUCED_123_);
constraint array_bool_and([X_INTRODUCED_122_,X_INTRODUCED_123_],X_INTRODUCED_124_):: defines_var(X_INTRODUCED_124_);
constraint bool2int(X_INTRODUCED_117_,X_INTRODUCED_126_):: defines_var(X_INTRODUCED_126_);
constraint bool2int(X_INTRODUCED_121_,X_INTRODUCED_127_):: defines_var(X_INTRODUCED_127_);
constraint bool2int(X_INTRODUCED_124_,X_INTRODUCED_128_):: defines_var(X_INTRODUCED_128_);
constraint int_lin_eq([10,10,10,10,10,10,10,10,10,10,10,10,1,100,100,100,100,100,100,100,100,100,100,100,100,-1],[X_INTRODUCED_136_,X_INTRODUCED_138_,X_INTRODUCED_140_,X_INTRODUCED_142_,X_INTRODUCED_144_,X_INTRODUCED_146_,X_INTRODUCED_148_,X_INTRODUCED_150_,X_INTRODUCED_152_,X_INTRODUCED_154_,X_INTRODUCED_156_,X_INTRODUCED_158_,X_INTRODUCED_131_,X_INTRODUCED_60_,X_INTRODUCED_61_,X_INTRODUCED_62_,X_INTRODUCED_82_,X_INTRODUCED_83_,X_INTRODUCED_84_,X_INTRODUCED_104_,X_INTRODUCED_105_,X_INTRODUCED_106_,X_INTRODUCED_126_,X_INTRODUCED_127_,X_INTRODUCED_128_,X_INTRODUCED_132_],0):: ctx_neg:: defines_var(X_INTRODUCED_132_);
constraint int_lin_eq([1,-1,-1],[X_INTRODUCED_14_,X_INTRODUCED_27_,X_INTRODUCED_135_],0):: defines_var(X_INTRODUCED_135_);
constraint int_lin_eq([1,-1,-1],[X_INTRODUCED_15_,X_INTRODUCED_28_,X_INTRODUCED_137_],0):: defines_var(X_INTRODUCED_137_);
constraint int_lin_eq([1,-1,-1],[X_INTRODUCED_16_,X_INTRODUCED_29_,X_INTRODUCED_139_],0):: defines_var(X_INTRODUCED_139_);
constraint int_lin_eq([1,-1,-1],[X_INTRODUCED_17_,X_INTRODUCED_30_,X_INTRODUCED_141_],0):: defines_var(X_INTRODUCED_141_);
constraint int_lin_eq([1,-1,-1],[X_INTRODUCED_18_,X_INTRODUCED_31_,X_INTRODUCED_143_],0):: defines_var(X_INTRODUCED_143_);
constraint int_lin_eq([1,-1,-1],[X_INTRODUCED_19_,X_INTRODUCED_32_,X_INTRODUCED_145_],0):: defines_var(X_INTRODUCED_145_);
constraint int_lin_eq([1,-1,-1],[X_INTRODUCED_20_,X_INTRODUCED_33_,X_INTRODUCED_147_],0):: defines_var(X_INTRODUCED_147_);
constraint int_lin_eq([1,-1,-1],[X_INTRODUCED_21_,X_INTRODUCED_34_,X_INTRODUCED_149_],0):: defines_var(X_INTRODUCED_149_);
constraint int_lin_eq([1,-1,-1],[X_INTRODUCED_22_,X_INTRODUCED_35_,X_INTRODUCED_151_],0):: defines_var(X_INTRODUCED_151_);
constraint int_lin_eq([1,-1,-1],[X_INTRODUCED_23_,X_INTRODUCED_36_,X_INTRODUCED_153_],0):: defines_var(X_INTRODUCED_153_);
constraint int_lin_eq([1,-1,-1],[X_INTRODUCED_24_,X_INTRODUCED_37_,X_INTRODUCED_155_],0):: defines_var(X_INTRODUCED_155_);
constraint int_lin_eq([1,-1,-1],[X_INTRODUCED_25_,X_INTRODUCED_38_,X_INTRODUCED_157_],0):: defines_var(X_INTRODUCED_157_);
solve :: seq_search([int_search(X_INTRODUCED_172_,smallest,indomain_min,complete),int_search([X_INTRODUCED_131_],input_order,indomain_min,complete)]) minimize X_INTRODUCED_132_;
